p cnf 200 1110
-101 13 0
-101 -5 0
-101 -98 0
-101 -39 0
-101 -34 0
-101 -83 0
-101 47 0
-101 21 0
-101 -53 0
-101 -50 0
101 -13 5 98 39 34 83 -47 -21 53 50 0
-102 43 0
-102 -64 0
-102 81 0
-102 -26 0
-102 -76 0
-102 30 0
-102 45 0
-102 91 0
-102 -37 0
-102 48 0
102 -43 64 -81 26 76 -30 -45 -91 37 -48 0
-103 44 0
-103 22 0
-103 26 0
-103 -82 0
-103 -95 0
-103 58 0
-103 3 0
-103 -13 0
-103 -45 0
-103 -87 0
103 -44 -22 -26 82 95 -58 -3 13 45 87 0
-104 -17 0
-104 27 0
-104 -25 0
-104 -6 0
-104 49 0
-104 -89 0
-104 20 0
-104 -58 0
-104 39 0
-104 84 0
104 17 -27 25 6 -49 89 -20 58 -39 -84 0
-105 -8 0
-105 -27 0
-105 -99 0
-105 -96 0
-105 29 0
-105 -51 0
-105 -46 0
-105 -16 0
-105 -83 0
-105 -72 0
105 8 27 99 96 -29 51 46 16 83 72 0
-106 -34 0
-106 7 0
-106 57 0
-106 70 0
-106 25 0
-106 39 0
-106 95 0
-106 27 0
-106 58 0
-106 -53 0
106 34 -7 -57 -70 -25 -39 -95 -27 -58 53 0
-107 44 0
-107 93 0
-107 72 0
-107 -7 0
-107 -1 0
-107 -61 0
-107 12 0
-107 57 0
-107 99 0
-107 -36 0
107 -44 -93 -72 7 1 61 -12 -57 -99 36 0
-108 -46 0
-108 4 0
-108 -72 0
-108 76 0
-108 -88 0
-108 17 0
-108 19 0
-108 -98 0
-108 37 0
-108 62 0
108 46 -4 72 -76 88 -17 -19 98 -37 -62 0
-109 19 0
-109 -35 0
-109 71 0
-109 -87 0
-109 91 0
-109 30 0
-109 65 0
-109 -10 0
-109 -32 0
-109 3 0
109 -19 35 -71 87 -91 -30 -65 10 32 -3 0
-110 -97 0
-110 67 0
-110 77 0
-110 -2 0
-110 -46 0
-110 -68 0
-110 -14 0
-110 40 0
-110 -43 0
-110 -41 0
110 97 -67 -77 2 46 68 14 -40 43 41 0
101 102 103 104 105 106 107 108 109 110 0
-111 -5 0
-111 14 0
-111 -20 0
-111 -21 0
-111 -15 0
-111 1 0
-111 59 0
-111 83 0
-111 -93 0
-111 -46 0
111 5 -14 20 21 15 -1 -59 -83 93 46 0
-112 -79 0
-112 46 0
-112 14 0
-112 26 0
-112 61 0
-112 65 0
-112 -22 0
-112 93 0
-112 -10 0
-112 -64 0
112 79 -46 -14 -26 -61 -65 22 -93 10 64 0
-113 -35 0
-113 -60 0
-113 -50 0
-113 73 0
-113 -92 0
-113 -25 0
-113 14 0
-113 47 0
-113 8 0
-113 -15 0
113 35 60 50 -73 92 25 -14 -47 -8 15 0
-114 70 0
-114 -58 0
-114 91 0
-114 -98 0
-114 -99 0
-114 -73 0
-114 -9 0
-114 -71 0
-114 66 0
-114 -51 0
114 -70 58 -91 98 99 73 9 71 -66 51 0
-115 60 0
-115 -25 0
-115 -27 0
-115 66 0
-115 13 0
-115 73 0
-115 -59 0
-115 -26 0
-115 -39 0
-115 70 0
115 -60 25 27 -66 -13 -73 59 26 39 -70 0
-116 -85 0
-116 -46 0
-116 -26 0
-116 -97 0
-116 20 0
-116 -49 0
-116 93 0
-116 -78 0
-116 6 0
-116 2 0
116 85 46 26 97 -20 49 -93 78 -6 -2 0
-117 -89 0
-117 93 0
-117 74 0
-117 32 0
-117 -15 0
-117 81 0
-117 -35 0
-117 -34 0
-117 -45 0
-117 -27 0
117 89 -93 -74 -32 15 -81 35 34 45 27 0
-118 30 0
-118 3 0
-118 -16 0
-118 76 0
-118 -99 0
-118 -35 0
-118 47 0
-118 18 0
-118 -92 0
-118 -68 0
118 -30 -3 16 -76 99 35 -47 -18 92 68 0
-119 -74 0
-119 -83 0
-119 69 0
-119 -93 0
-119 4 0
-119 -13 0
-119 22 0
-119 70 0
-119 -41 0
-119 43 0
119 74 83 -69 93 -4 13 -22 -70 41 -43 0
-120 -43 0
-120 73 0
-120 27 0
-120 34 0
-120 -62 0
-120 86 0
-120 -97 0
-120 -23 0
-120 -22 0
-120 -64 0
120 43 -73 -27 -34 62 -86 97 23 22 64 0
111 112 113 114 115 116 117 118 119 120 0
-121 -69 0
-121 -63 0
-121 -78 0
-121 99 0
-121 -35 0
-121 80 0
-121 -71 0
-121 97 0
-121 -52 0
-121 93 0
121 69 63 78 -99 35 -80 71 -97 52 -93 0
-122 62 0
-122 68 0
-122 -59 0
-122 -39 0
-122 -1 0
-122 26 0
-122 -12 0
-122 -57 0
-122 52 0
-122 -23 0
122 -62 -68 59 39 1 -26 12 57 -52 23 0
-123 -26 0
-123 31 0
-123 -39 0
-123 90 0
-123 65 0
-123 83 0
-123 -63 0
-123 45 0
-123 -46 0
-123 -38 0
123 26 -31 39 -90 -65 -83 63 -45 46 38 0
-124 -21 0
-124 -73 0
-124 -22 0
-124 30 0
-124 -93 0
-124 54 0
-124 66 0
-124 -91 0
-124 16 0
-124 7 0
124 21 73 22 -30 93 -54 -66 91 -16 -7 0
-125 -25 0
-125 -12 0
-125 2 0
-125 84 0
-125 -31 0
-125 34 0
-125 33 0
-125 5 0
-125 -23 0
-125 -86 0
125 25 12 -2 -84 31 -34 -33 -5 23 86 0
-126 -87 0
-126 -89 0
-126 70 0
-126 -18 0
-126 -67 0
-126 16 0
-126 -86 0
-126 -63 0
-126 -83 0
-126 -60 0
126 87 89 -70 18 67 -16 86 63 83 60 0
-127 -31 0
-127 77 0
-127 -27 0
-127 -80 0
-127 5 0
-127 -4 0
-127 64 0
-127 68 0
-127 3 0
-127 89 0
127 31 -77 27 80 -5 4 -64 -68 -3 -89 0
-128 -10 0
-128 6 0
-128 -80 0
-128 -59 0
-128 67 0
-128 33 0
-128 -98 0
-128 65 0
-128 32 0
-128 -17 0
128 10 -6 80 59 -67 -33 98 -65 -32 17 0
-129 77 0
-129 66 0
-129 94 0
-129 -49 0
-129 -84 0
-129 -35 0
-129 14 0
-129 -28 0
-129 68 0
-129 31 0
129 -77 -66 -94 49 84 35 -14 28 -68 -31 0
-130 60 0
-130 -24 0
-130 35 0
-130 -7 0
-130 8 0
-130 97 0
-130 -86 0
-130 10 0
-130 84 0
-130 -58 0
130 -60 24 -35 7 -8 -97 86 -10 -84 58 0
121 122 123 124 125 126 127 128 129 130 0
-131 52 0
-131 -96 0
-131 70 0
-131 -63 0
-131 -13 0
-131 93 0
-131 71 0
-131 -55 0
-131 43 0
-131 91 0
131 -52 96 -70 63 13 -93 -71 55 -43 -91 0
-132 -4 0
-132 88 0
-132 75 0
-132 -27 0
-132 15 0
-132 -63 0
-132 -31 0
-132 26 0
-132 -83 0
-132 -46 0
132 4 -88 -75 27 -15 63 31 -26 83 46 0
-133 69 0
-133 -7 0
-133 -67 0
-133 35 0
-133 -61 0
-133 -5 0
-133 72 0
-133 -68 0
-133 -66 0
-133 -43 0
133 -69 7 67 -35 61 5 -72 68 66 43 0
-134 -75 0
-134 -13 0
-134 21 0
-134 -51 0
-134 83 0
-134 43 0
-134 100 0
-134 12 0
-134 91 0
-134 88 0
134 75 13 -21 51 -83 -43 -100 -12 -91 -88 0
-135 4 0
-135 -17 0
-135 -66 0
-135 -35 0
-135 7 0
-135 9 0
-135 -48 0
-135 56 0
-135 21 0
-135 -81 0
135 -4 17 66 35 -7 -9 48 -56 -21 81 0
-136 59 0
-136 -34 0
-136 55 0
-136 75 0
-136 -82 0
-136 67 0
-136 -51 0
-136 14 0
-136 12 0
-136 -99 0
136 -59 34 -55 -75 82 -67 51 -14 -12 99 0
-137 -93 0
-137 19 0
-137 43 0
-137 57 0
-137 -32 0
-137 -69 0
-137 -21 0
-137 44 0
-137 45 0
-137 -29 0
137 93 -19 -43 -57 32 69 21 -44 -45 29 0
-138 70 0
-138 -46 0
-138 55 0
-138 22 0
-138 7 0
-138 -83 0
-138 -56 0
-138 -14 0
-138 52 0
-138 47 0
138 -70 46 -55 -22 -7 83 56 14 -52 -47 0
-139 46 0
-139 83 0
-139 27 0
-139 -95 0
-139 -47 0
-139 -86 0
-139 42 0
-139 20 0
-139 -63 0
-139 75 0
139 -46 -83 -27 95 47 86 -42 -20 63 -75 0
-140 -48 0
-140 -8 0
-140 77 0
-140 -78 0
-140 -55 0
-140 38 0
-140 18 0
-140 -86 0
-140 -31 0
-140 -54 0
140 48 8 -77 78 55 -38 -18 86 31 54 0
131 132 133 134 135 136 137 138 139 140 0
-141 84 0
-141 40 0
-141 -60 0
-141 -66 0
-141 -74 0
-141 -94 0
-141 -82 0
-141 65 0
-141 14 0
-141 53 0
141 -84 -40 60 66 74 94 82 -65 -14 -53 0
-142 -99 0
-142 -24 0
-142 60 0
-142 42 0
-142 18 0
-142 23 0
-142 79 0
-142 -96 0
-142 29 0
-142 55 0
142 99 24 -60 -42 -18 -23 -79 96 -29 -55 0
-143 -99 0
-143 10 0
-143 92 0
-143 -13 0
-143 -8 0
-143 64 0
-143 -67 0
-143 -31 0
-143 89 0
-143 29 0
143 99 -10 -92 13 8 -64 67 31 -89 -29 0
-144 -36 0
-144 -80 0
-144 -85 0
-144 -39 0
-144 -2 0
-144 28 0
-144 5 0
-144 -89 0
-144 75 0
-144 -21 0
144 36 80 85 39 2 -28 -5 89 -75 21 0
-145 12 0
-145 -67 0
-145 -50 0
-145 14 0
-145 -37 0
-145 -22 0
-145 89 0
-145 48 0
-145 79 0
-145 -13 0
145 -12 67 50 -14 37 22 -89 -48 -79 13 0
-146 -67 0
-146 -52 0
-146 -28 0
-146 20 0
-146 -46 0
-146 -81 0
-146 -25 0
-146 48 0
-146 -18 0
-146 75 0
146 67 52 28 -20 46 81 25 -48 18 -75 0
-147 -19 0
-147 -60 0
-147 100 0
-147 42 0
-147 97 0
-147 -29 0
-147 88 0
-147 -67 0
-147 59 0
-147 -47 0
147 19 60 -100 -42 -97 29 -88 67 -59 47 0
-148 11 0
-148 -54 0
-148 8 0
-148 -97 0
-148 73 0
-148 -14 0
-148 -84 0
-148 -36 0
-148 -55 0
-148 -82 0
148 -11 54 -8 97 -73 14 84 36 55 82 0
-149 30 0
-149 29 0
-149 -61 0
-149 85 0
-149 19 0
-149 69 0
-149 17 0
-149 -79 0
-149 48 0
-149 92 0
149 -30 -29 61 -85 -19 -69 -17 79 -48 -92 0
-150 65 0
-150 21 0
-150 64 0
-150 -46 0
-150 -13 0
-150 77 0
-150 -95 0
-150 19 0
-150 86 0
-150 -15 0
150 -65 -21 -64 46 13 -77 95 -19 -86 15 0
141 142 143 144 145 146 147 148 149 150 0
-151 -38 0
-151 -100 0
-151 -13 0
-151 -11 0
-151 50 0
-151 34 0
-151 -43 0
-151 -53 0
-151 45 0
-151 99 0
151 38 100 13 11 -50 -34 43 53 -45 -99 0
-152 -86 0
-152 -37 0
-152 -72 0
-152 -74 0
-152 -19 0
-152 -27 0
-152 9 0
-152 -34 0
-152 82 0
-152 -61 0
152 86 37 72 74 19 27 -9 34 -82 61 0
-153 -6 0
-153 43 0
-153 83 0
-153 90 0
-153 -84 0
-153 -1 0
-153 -8 0
-153 -58 0
-153 -54 0
-153 -57 0
153 6 -43 -83 -90 84 1 8 58 54 57 0
-154 53 0
-154 11 0
-154 3 0
-154 -85 0
-154 -66 0
-154 -49 0
-154 86 0
-154 99 0
-154 48 0
-154 43 0
154 -53 -11 -3 85 66 49 -86 -99 -48 -43 0
-155 69 0
-155 67 0
-155 52 0
-155 -71 0
-155 49 0
-155 84 0
-155 -1 0
-155 61 0
-155 43 0
-155 30 0
155 -69 -67 -52 71 -49 -84 1 -61 -43 -30 0
-156 -2 0
-156 -56 0
-156 37 0
-156 -71 0
-156 -49 0
-156 -50 0
-156 41 0
-156 80 0
-156 -20 0
-156 28 0
156 2 56 -37 71 49 50 -41 -80 20 -28 0
-157 -85 0
-157 4 0
-157 95 0
-157 -92 0
-157 97 0
-157 57 0
-157 84 0
-157 61 0
-157 24 0
-157 -32 0
157 85 -4 -95 92 -97 -57 -84 -61 -24 32 0
-158 -13 0
-158 25 0
-158 39 0
-158 -5 0
-158 -37 0
-158 62 0
-158 -47 0
-158 57 0
-158 48 0
-158 -24 0
158 13 -25 -39 5 37 -62 47 -57 -48 24 0
-159 -54 0
-159 14 0
-159 -37 0
-159 -56 0
-159 15 0
-159 33 0
-159 26 0
-159 -32 0
-159 -85 0
-159 42 0
159 54 -14 37 56 -15 -33 -26 32 85 -42 0
-160 56 0
-160 59 0
-160 95 0
-160 -18 0
-160 6 0
-160 13 0
-160 14 0
-160 -84 0
-160 62 0
-160 49 0
160 -56 -59 -95 18 -6 -13 -14 84 -62 -49 0
151 152 153 154 155 156 157 158 159 160 0
-161 -67 0
-161 2 0
-161 14 0
-161 40 0
-161 74 0
-161 25 0
-161 24 0
-161 -60 0
-161 -13 0
-161 -1 0
161 67 -2 -14 -40 -74 -25 -24 60 13 1 0
-162 -56 0
-162 82 0
-162 64 0
-162 -75 0
-162 -58 0
-162 96 0
-162 15 0
-162 60 0
-162 66 0
-162 23 0
162 56 -82 -64 75 58 -96 -15 -60 -66 -23 0
-163 8 0
-163 36 0
-163 -45 0
-163 79 0
-163 96 0
-163 -6 0
-163 -13 0
-163 43 0
-163 26 0
-163 31 0
163 -8 -36 45 -79 -96 6 13 -43 -26 -31 0
-164 4 0
-164 14 0
-164 3 0
-164 38 0
-164 -16 0
-164 74 0
-164 -68 0
-164 -80 0
-164 -33 0
-164 -84 0
164 -4 -14 -3 -38 16 -74 68 80 33 84 0
-165 34 0
-165 -85 0
-165 -92 0
-165 93 0
-165 -40 0
-165 -65 0
-165 69 0
-165 87 0
-165 11 0
-165 59 0
165 -34 85 92 -93 40 65 -69 -87 -11 -59 0
-166 78 0
-166 -90 0
-166 9 0
-166 -53 0
-166 22 0
-166 39 0
-166 -94 0
-166 -49 0
-166 -99 0
-166 -95 0
166 -78 90 -9 53 -22 -39 94 49 99 95 0
-167 90 0
-167 -65 0
-167 67 0
-167 84 0
-167 32 0
-167 72 0
-167 -34 0
-167 89 0
-167 11 0
-167 95 0
167 -90 65 -67 -84 -32 -72 34 -89 -11 -95 0
-168 -10 0
-168 -26 0
-168 -93 0
-168 -48 0
-168 88 0
-168 -70 0
-168 15 0
-168 -85 0
-168 -89 0
-168 -75 0
168 10 26 93 48 -88 70 -15 85 89 75 0
-169 -21 0
-169 29 0
-169 -30 0
-169 58 0
-169 80 0
-169 -25 0
-169 -67 0
-169 99 0
-169 98 0
-169 60 0
169 21 -29 30 -58 -80 25 67 -99 -98 -60 0
-170 69 0
-170 -84 0
-170 43 0
-170 -91 0
-170 19 0
-170 74 0
-170 -87 0
-170 -34 0
-170 44 0
-170 -18 0
170 -69 84 -43 91 -19 -74 87 34 -44 18 0
161 162 163 164 165 166 167 168 169 170 0
-171 -89 0
-171 15 0
-171 -19 0
-171 68 0
-171 48 0
-171 73 0
-171 -87 0
-171 57 0
-171 56 0
-171 -98 0
171 89 -15 19 -68 -48 -73 87 -57 -56 98 0
-172 91 0
-172 53 0
-172 14 0
-172 -42 0
-172 -29 0
-172 48 0
-172 83 0
-172 -35 0
-172 -63 0
-172 65 0
172 -91 -53 -14 42 29 -48 -83 35 63 -65 0
-173 -90 0
-173 44 0
-173 9 0
-173 -86 0
-173 63 0
-173 23 0
-173 -52 0
-173 24 0
-173 -69 0
-173 37 0
173 90 -44 -9 86 -63 -23 52 -24 69 -37 0
-174 83 0
-174 -8 0
-174 -17 0
-174 22 0
-174 82 0
-174 11 0
-174 -64 0
-174 -86 0
-174 -74 0
-174 -15 0
174 -83 8 17 -22 -82 -11 64 86 74 15 0
-175 -63 0
-175 -28 0
-175 74 0
-175 -55 0
-175 14 0
-175 50 0
-175 24 0
-175 98 0
-175 64 0
-175 18 0
175 63 28 -74 55 -14 -50 -24 -98 -64 -18 0
-176 8 0
-176 -48 0
-176 -81 0
-176 -50 0
-176 -39 0
-176 -63 0
-176 52 0
-176 69 0
-176 -53 0
-176 86 0
176 -8 48 81 50 39 63 -52 -69 53 -86 0
-177 -64 0
-177 95 0
-177 47 0
-177 -49 0
-177 -70 0
-177 16 0
-177 21 0
-177 79 0
-177 -33 0
-177 -53 0
177 64 -95 -47 49 70 -16 -21 -79 33 53 0
-178 -93 0
-178 30 0
-178 -65 0
-178 37 0
-178 -97 0
-178 34 0
-178 12 0
-178 -85 0
-178 20 0
-178 -25 0
178 93 -30 65 -37 97 -34 -12 85 -20 25 0
-179 -27 0
-179 32 0
-179 1 0
-179 12 0
-179 -89 0
-179 15 0
-179 -26 0
-179 -96 0
-179 -18 0
-179 -21 0
179 27 -32 -1 -12 89 -15 26 96 18 21 0
-180 42 0
-180 62 0
-180 -73 0
-180 60 0
-180 27 0
-180 -59 0
-180 -15 0
-180 1 0
-180 64 0
-180 68 0
180 -42 -62 73 -60 -27 59 15 -1 -64 -68 0
171 172 173 174 175 176 177 178 179 180 0
-181 1 0
-181 -96 0
-181 82 0
-181 78 0
-181 57 0
-181 -39 0
-181 13 0
-181 24 0
-181 -64 0
-181 3 0
181 -1 96 -82 -78 -57 39 -13 -24 64 -3 0
-182 35 0
-182 -1 0
-182 69 0
-182 -100 0
-182 72 0
-182 66 0
-182 -36 0
-182 7 0
-182 14 0
-182 67 0
182 -35 1 -69 100 -72 -66 36 -7 -14 -67 0
-183 -97 0
-183 75 0
-183 -95 0
-183 -50 0
-183 -10 0
-183 13 0
-183 31 0
-183 -29 0
-183 -41 0
-183 93 0
183 97 -75 95 50 10 -13 -31 29 41 -93 0
-184 72 0
-184 -46 0
-184 -96 0
-184 -14 0
-184 -56 0
-184 -6 0
-184 43 0
-184 -97 0
-184 -53 0
-184 63 0
184 -72 46 96 14 56 6 -43 97 53 -63 0
-185 -37 0
-185 27 0
-185 -20 0
-185 87 0
-185 54 0
-185 30 0
-185 -69 0
-185 71 0
-185 -97 0
-185 59 0
185 37 -27 20 -87 -54 -30 69 -71 97 -59 0
-186 -72 0
-186 -37 0
-186 79 0
-186 -90 0
-186 58 0
-186 -65 0
-186 38 0
-186 91 0
-186 -48 0
-186 53 0
186 72 37 -79 90 -58 65 -38 -91 48 -53 0
-187 39 0
-187 22 0
-187 90 0
-187 -57 0
-187 36 0
-187 12 0
-187 49 0
-187 -50 0
-187 70 0
-187 87 0
187 -39 -22 -90 57 -36 -12 -49 50 -70 -87 0
-188 -54 0
-188 -62 0
-188 -72 0
-188 2 0
-188 -32 0
-188 18 0
-188 61 0
-188 -6 0
-188 -13 0
-188 30 0
188 54 62 72 -2 32 -18 -61 6 13 -30 0
-189 -29 0
-189 -86 0
-189 -33 0
-189 -68 0
-189 -8 0
-189 3 0
-189 61 0
-189 -37 0
-189 97 0
-189 52 0
189 29 86 33 68 8 -3 -61 37 -97 -52 0
-190 -49 0
-190 -46 0
-190 -79 0
-190 -2 0
-190 -81 0
-190 8 0
-190 -51 0
-190 -96 0
-190 -3 0
-190 84 0
190 49 46 79 2 81 -8 51 96 3 -84 0
181 182 183 184 185 186 187 188 189 190 0
-191 98 0
-191 90 0
-191 -62 0
-191 -78 0
-191 8 0
-191 68 0
-191 6 0
-191 -97 0
-191 -11 0
-191 -83 0
191 -98 -90 62 78 -8 -68 -6 97 11 83 0
-192 -24 0
-192 -85 0
-192 98 0
-192 94 0
-192 -3 0
-192 53 0
-192 -34 0
-192 82 0
-192 -12 0
-192 -63 0
192 24 85 -98 -94 3 -53 34 -82 12 63 0
-193 4 0
-193 -41 0
-193 83 0
-193 91 0
-193 -94 0
-193 -5 0
-193 -47 0
-193 64 0
-193 98 0
-193 -2 0
193 -4 41 -83 -91 94 5 47 -64 -98 2 0
-194 40 0
-194 72 0
-194 77 0
-194 68 0
-194 3 0
-194 71 0
-194 60 0
-194 -1 0
-194 57 0
-194 -73 0
194 -40 -72 -77 -68 -3 -71 -60 1 -57 73 0
-195 19 0
-195 -56 0
-195 55 0
-195 -43 0
-195 8 0
-195 68 0
-195 -16 0
-195 -30 0
-195 -80 0
-195 72 0
195 -19 56 -55 43 -8 -68 16 30 80 -72 0
-196 34 0
-196 63 0
-196 94 0
-196 45 0
-196 -97 0
-196 83 0
-196 37 0
-196 -44 0
-196 53 0
-196 72 0
196 -34 -63 -94 -45 97 -83 -37 44 -53 -72 0
-197 -21 0
-197 -51 0
-197 31 0
-197 -74 0
-197 -78 0
-197 -68 0
-197 -28 0
-197 -27 0
-197 -3 0
-197 -25 0
197 21 51 -31 74 78 68 28 27 3 25 0
-198 -45 0
-198 -90 0
-198 -72 0
-198 -32 0
-198 93 0
-198 87 0
-198 -65 0
-198 -36 0
-198 -98 0
-198 -20 0
198 45 90 72 32 -93 -87 65 36 98 20 0
-199 96 0
-199 62 0
-199 99 0
-199 61 0
-199 -14 0
-199 17 0
-199 -18 0
-199 -77 0
-199 -93 0
-199 30 0
199 -96 -62 -99 -61 14 -17 18 77 93 -30 0
-200 43 0
-200 86 0
-200 99 0
-200 -75 0
-200 55 0
-200 81 0
-200 -25 0
-200 59 0
-200 94 0
-200 67 0
200 -43 -86 -99 75 -55 -81 25 -59 -94 -67 0
191 192 193 194 195 196 197 198 199 200 0
